p edge 100 600
e 1 30
e 1 35
e 1 40
e 1 71
e 1 79
e 1 96
e 2 3
e 2 18
e 2 24
e 2 68
e 2 93
e 2 98
e 3 2
e 3 53
e 3 57
e 3 81
e 3 87
e 3 92
e 4 20
e 4 39
e 4 42
e 4 45
e 4 66
e 4 90
e 5 18
e 5 30
e 5 32
e 5 41
e 5 94
e 5 98
e 6 2
e 6 10
e 6 28
e 6 72
e 6 76
e 6 82
e 7 54
e 7 57
e 7 68
e 7 71
e 7 87
e 7 98
e 8 7
e 8 20
e 8 25
e 8 31
e 8 66
e 8 84
e 9 4
e 9 26
e 9 29
e 9 30
e 9 33
e 9 72
e 10 7
e 10 9
e 10 16
e 10 20
e 10 69
e 10 71
e 11 19
e 11 24
e 11 41
e 11 50
e 11 97
e 11 97
e 12 22
e 12 35
e 12 46
e 12 47
e 12 52
e 12 56
e 13 29
e 13 42
e 13 60
e 13 65
e 13 80
e 13 89
e 14 1
e 14 35
e 14 51
e 14 65
e 14 94
e 14 98
e 15 25
e 15 44
e 15 47
e 15 57
e 15 88
e 15 92
e 16 28
e 16 33
e 16 37
e 16 59
e 16 60
e 16 66
e 17 8
e 17 29
e 17 38
e 17 52
e 17 76
e 17 88
e 18 22
e 18 23
e 18 30
e 18 59
e 18 75
e 18 96
e 19 29
e 19 36
e 19 38
e 19 44
e 19 80
e 19 94
e 20 5
e 20 12
e 20 29
e 20 30
e 20 77
e 20 78
e 21 7
e 21 14
e 21 39
e 21 44
e 21 50
e 21 64
e 22 5
e 22 19
e 22 29
e 22 40
e 22 41
e 22 89
e 23 1
e 23 18
e 23 18
e 23 25
e 23 70
e 23 97
e 24 29
e 24 44
e 24 71
e 24 84
e 24 91
e 24 100
e 25 6
e 25 26
e 25 45
e 25 73
e 25 91
e 25 96
e 26 3
e 26 40
e 26 55
e 26 70
e 26 83
e 26 87
e 27 8
e 27 43
e 27 56
e 27 58
e 27 65
e 27 98
e 28 5
e 28 12
e 28 23
e 28 29
e 28 49
e 28 62
e 29 41
e 29 44
e 29 47
e 29 69
e 29 82
e 29 100
e 30 2
e 30 6
e 30 11
e 30 12
e 30 23
e 30 90
e 31 6
e 31 21
e 31 37
e 31 62
e 31 69
e 31 79
e 32 9
e 32 23
e 32 27
e 32 45
e 32 66
e 32 74
e 33 17
e 33 25
e 33 38
e 33 51
e 33 59
e 33 83
e 34 1
e 34 8
e 34 25
e 34 37
e 34 53
e 34 63
e 35 51
e 35 54
e 35 69
e 35 72
e 35 80
e 35 100
e 36 18
e 36 31
e 36 32
e 36 34
e 36 74
e 36 82
e 37 16
e 37 61
e 37 64
e 37 82
e 37 95
e 37 100
e 38 14
e 38 46
e 38 60
e 38 74
e 38 97
e 38 100
e 39 27
e 39 43
e 39 67
e 39 69
e 39 91
e 39 96
e 40 41
e 40 77
e 40 85
e 40 85
e 40 87
e 40 91
e 41 8
e 41 12
e 41 37
e 41 43
e 41 46
e 41 57
e 42 13
e 42 19
e 42 49
e 42 55
e 42 80
e 42 88
e 43 10
e 43 11
e 43 15
e 43 37
e 43 60
e 43 73
e 44 2
e 44 7
e 44 14
e 44 17
e 44 43
e 44 88
e 45 20
e 45 22
e 45 56
e 45 73
e 45 86
e 45 100
e 46 5
e 46 12
e 46 22
e 46 40
e 46 41
e 46 57
e 47 6
e 47 25
e 47 28
e 47 29
e 47 51
e 47 68
e 48 21
e 48 23
e 48 25
e 48 38
e 48 59
e 48 85
e 49 13
e 49 31
e 49 70
e 49 82
e 49 85
e 49 97
e 50 26
e 50 51
e 50 73
e 50 73
e 50 75
e 50 93
e 51 23
e 51 41
e 51 43
e 51 83
e 51 86
e 51 100
e 52 14
e 52 25
e 52 77
e 52 91
e 52 99
e 52 99
e 53 10
e 53 20
e 53 37
e 53 73
e 53 82
e 53 91
e 54 5
e 54 33
e 54 45
e 54 56
e 54 80
e 54 95
e 55 41
e 55 51
e 55 56
e 55 70
e 55 74
e 55 77
e 56 22
e 56 43
e 56 61
e 56 80
e 56 85
e 56 94
e 57 5
e 57 6
e 57 14
e 57 22
e 57 68
e 57 91
e 58 27
e 58 45
e 58 55
e 58 60
e 58 62
e 58 76
e 59 3
e 59 3
e 59 7
e 59 22
e 59 85
e 59 100
e 60 29
e 60 32
e 60 43
e 60 69
e 60 73
e 60 90
e 61 9
e 61 9
e 61 37
e 61 53
e 61 59
e 61 99
e 62 4
e 62 27
e 62 34
e 62 34
e 62 49
e 62 54
e 63 47
e 63 49
e 63 49
e 63 55
e 63 68
e 63 91
e 64 1
e 64 30
e 64 47
e 64 69
e 64 89
e 64 95
e 65 4
e 65 34
e 65 50
e 65 72
e 65 91
e 65 98
e 66 33
e 66 54
e 66 64
e 66 87
e 66 93
e 66 98
e 67 11
e 67 26
e 67 53
e 67 76
e 67 89
e 67 97
e 68 15
e 68 30
e 68 37
e 68 48
e 68 58
e 68 61
e 69 5
e 69 20
e 69 22
e 69 28
e 69 29
e 69 61
e 70 3
e 70 49
e 70 51
e 70 57
e 70 68
e 70 95
e 71 3
e 71 34
e 71 40
e 71 44
e 71 98
e 71 100
e 72 1
e 72 4
e 72 28
e 72 29
e 72 48
e 72 82
e 73 35
e 73 36
e 73 39
e 73 52
e 73 60
e 73 99
e 74 5
e 74 16
e 74 28
e 74 40
e 74 52
e 74 93
e 75 9
e 75 30
e 75 30
e 75 50
e 75 65
e 75 86
e 76 1
e 76 10
e 76 36
e 76 39
e 76 44
e 76 78
e 77 50
e 77 68
e 77 72
e 77 89
e 77 89
e 77 90
e 78 30
e 78 44
e 78 45
e 78 70
e 78 93
e 78 96
e 79 41
e 79 42
e 79 63
e 79 70
e 79 83
e 79 91
e 80 27
e 80 33
e 80 43
e 80 44
e 80 61
e 80 62
e 81 10
e 81 18
e 81 24
e 81 62
e 81 82
e 81 85
e 82 5
e 82 26
e 82 68
e 82 78
e 82 91
e 82 97
e 83 25
e 83 27
e 83 35
e 83 56
e 83 58
e 83 91
e 84 6
e 84 13
e 84 15
e 84 19
e 84 59
e 84 69
e 85 1
e 85 27
e 85 37
e 85 47
e 85 87
e 85 95
e 86 17
e 86 30
e 86 47
e 86 53
e 86 79
e 86 81
e 87 48
e 87 52
e 87 64
e 87 71
e 87 81
e 87 91
e 88 13
e 88 28
e 88 32
e 88 58
e 88 67
e 88 94
e 89 13
e 89 14
e 89 15
e 89 56
e 89 87
e 89 91
e 90 11
e 90 13
e 90 70
e 90 75
e 90 80
e 90 93
e 91 6
e 91 21
e 91 34
e 91 42
e 91 56
e 91 88
e 92 39
e 92 61
e 92 67
e 92 71
e 92 85
e 92 89
e 93 7
e 93 18
e 93 21
e 93 50
e 93 57
e 93 61
e 94 6
e 94 18
e 94 19
e 94 38
e 94 60
e 94 66
e 95 46
e 95 59
e 95 74
e 95 74
e 95 84
e 95 84
e 96 8
e 96 38
e 96 79
e 96 79
e 96 84
e 96 90
e 97 1
e 97 15
e 97 30
e 97 42
e 97 58
e 97 72
e 98 19
e 98 26
e 98 36
e 98 39
e 98 60
e 98 89
e 99 34
e 99 58
e 99 65
e 99 75
e 99 82
e 99 94
e 100 4
e 100 18
e 100 40
e 100 59
e 100 70
e 100 71
